
Implied bound cuts applied:  1
Flow cuts applied:  1
Mixed integer rounding cuts applied:  2
Zero-half cuts applied:  1
Lift and project cuts applied:  1
Gomory fractional cuts applied:  3

Root node processing (before b&c):
  Real time             =    0.04 sec. (12.62 ticks)
Parallel b&c, 4 threads:
  Real time             =    0.00 sec. (0.00 ticks)
  Sync time (average)   =    0.00 sec.
  Wait time (average)   =    0.00 sec.
                          ------------
Total (root+branch&cut) =    0.04 sec. (12.62 ticks)
Version identifier: 12.10.0.0 | 2019-11-26 | 843d4de
CPXPARAM_MIP_Interval                            10
CPXPARAM_MIP_Tolerances_AbsMIPGap                0.98999999999999999
Tried aggregator 2 times.
MIP Presolve eliminated 2140 rows and 1393 columns.
MIP Presolve modified 9 coefficients.
Aggregator did 46 substitutions.
Reduced MIP has 165 rows, 157 columns, and 564 nonzeros.
Reduced MIP has 69 binaries, 88 generals, 0 SOSs, and 0 indicators.
Presolve time = 0.00 sec. (2.12 ticks)
Probing fixed 0 vars, tightened 7 bounds.
Probing changed sense of 4 constraints.
Probing time = 0.00 sec. (0.04 ticks)
Tried aggregator 1 time.
Detecting symmetries...
MIP Presolve eliminated 7 rows and 6 columns.
MIP Presolve modified 9 coefficients.
Reduced MIP has 158 rows, 151 columns, and 539 nonzeros.
Reduced MIP has 65 binaries, 86 generals, 0 SOSs, and 0 indicators.
Presolve time = 0.00 sec. (0.37 ticks)
Probing time = 0.00 sec. (0.03 ticks)
Clique table members: 12.
MIP emphasis: balance optimality and feasibility.
MIP search method: dynamic search.
Parallel mode: deterministic, using up to 4 threads.
Root relaxation solution time = 0.00 sec. (2.06 ticks)

        Nodes                                         Cuts/
   Node  Left     Objective  IInf  Best Integer    Best Bound    ItCnt     Gap

      0     0       17.8333    44                     17.8333      258         
      0     0       17.8333    44                    Cuts: 36      300         
      0     0       17.6667    44                    Cuts: 51      358         
      0     0       17.6667    44                    Cuts: 71      413         
      0     0       17.6667    44                    Cuts: 14      478         
*     0+    0                           11.0000       17.6667            60.61%
*     0+    0                           16.0000       17.6667            10.42%
Detecting symmetries...
      0     2       17.6667    61       16.0000       17.0417      478    6.51%
Elapsed time = 0.08 sec. (33.55 ticks, tree = 0.02 MB, solutions = 2)
     10     5       17.6389    44       16.0000       17.0417      632    6.51%
     20     6        cutoff             16.0000       17.0417      758    6.51%
     30     8        cutoff             16.0000       17.0417      898    6.51%
     40     6        cutoff             16.0000       17.0417     1542    6.51%
     50     4        cutoff             16.0000       17.0417     1894    6.51%
     60     8        cutoff             16.0000       17.0417     1976    6.51%
the number of Nodes = 64
